(set-logic HORN)
(set-info :source |
  Benchmark: test_safe_2019/termination/map.7.ml
  Generated by MoCHi
|)
(set-info :status unknown)
(declare-fun |fail_24421[0:0]| ( Int) Bool)
(declare-fun |map[0:7][0:3]| ( Bool  Int  Int  Int  Bool  Int  Int  Bool  Int  Int  Int) Bool)
(declare-fun |map[0:11]| ( Bool  Int  Int  Int  Bool  Int  Int  Bool  Int  Int  Int) Bool)
(assert (not (exists ((x0 Int)) (|fail_24421[0:0]| x0))))
(assert (forall ((x0 Int)(x1 Int)(x2 Int)(x7 Int)) (=> (|map[0:7][0:3]| false 0 0 0 false 0 0 true x1 x2 x7) (|fail_24421[0:0]| x0))))
(assert (forall ((x9 Bool)(x8 Int)(x7 Int)(x0 Int)(x6 Bool)(x5 Int)(x4 Int)(x11 Bool)(x12 Int)(x13 Int)(x14 Int)(x10 Int)) (=> (and (|map[0:11]| x9 x8 x7 x0 x6 x5 x4 x11 x12 x13 x10) (not (= x10 0))) (|map[0:7][0:3]| x9 x8 x7 x0 x6 x5 x4 x11 x12 x13 x14))))
(assert (forall ((x9 Bool)(x7 Int)(x8 Int)(x0 Int)(x5 Bool)(x3 Int)(x1 Int)(x6 Bool)(x4 Int)(x2 Int)(x11 Int)) (=> (and (= x0 0) (and (= x7 0) (and (= x8 0) (and (>= x11 0) (and (= x3 x7) (and (= x3 x4) (and (= x1 x8) (and (= x1 x2) (and (not x9) (and (not x5) (= x5 x6))))))))))) (|map[0:11]| x9 x7 x8 x0 x5 x3 x1 x6 x4 x2 x11))))
(check-sat)
(get-model)
(exit)
